18
tmacl
 C                 -5.12996550    0.88237190    0.00000000
 H                 -5.48661942    1.89118208    0.00000189
 H                 -5.48663807    0.37797482   -0.87365225
 H                 -5.48663857    0.37797197    0.87365040
 C                 -3.07664979   -0.56957923    0.00000000
 H                 -3.43332200   -1.07397719   -0.87365189
 H                 -2.00664979   -0.56959187    0.00000116
 H                 -3.43332333   -1.07397820    0.87365077
 C                 -3.07662328    1.60830920    1.25740497
 H                 -2.00662509    1.60660213    1.25838332
 H                 -3.43167984    2.61768222    1.25642758
 H                 -3.43489225    1.10504120    2.13105517
 C                 -3.07662328    1.60830920   -1.25740497
 H                 -2.00662329    1.60842572   -1.25732975
 H                 -3.43317414    1.10382386   -2.13105595
 H                 -3.43339975    2.61707605   -1.25748033
 N                 -3.58996550    0.88235293    0.00000000
 Cl                 8.67002652    8.03808016   -5.16543654